(declare-const term_to_project_onto Real)
(declare-const term_to_project_onto1 Real)
(declare-const term_to_project_onto0 Real)
(assert (exists
         ((|j'?1| Int) (|k'?2| Int) (|i'?3| Int) (n?4 Int) (j?5 Int)
            (k?6 Int) (i?7 Int))
         (and (<= (- n?4) 0) (<= (- j?5) 0) (<= (- i?7) 0)
                (= (+ i?7 j?5 (- n?4)) 0) (<= (- k?6) 0)
                (<= (+ j?5 (- n?4) 2) 0) (= (+ |j'?1| (- j?5) -1) 0)
                (= (+ |k'?2| (- k?6) 1) 0) (= (+ |i'?3| (- i?7) 1) 0)
                (= term_to_project_onto1 (+ |i'?3| (- i?7)))
                (= term_to_project_onto0 (+ |k'?2| (- k?6)))
                (= term_to_project_onto (+ |j'?1| (- j?5))))))
(check-sat)
